-37.0 5.0 3.0 8.0 0.0 1.0 5.0 8.0 7.0 
5.0 -48.0 2.0 9.0 9.0 6.0 2.0 7.0 8.0 
3.0 2.0 -37.0 5.0 0.0 8.0 8.0 2.0 9.0 
8.0 9.0 5.0 -49.0 7.0 5.0 6.0 0.0 9.0 
0.0 9.0 0.0 7.0 -41.0 3.0 7.0 9.0 6.0 
1.0 6.0 8.0 5.0 3.0 -43.0 10.0 0.0 10.0 
5.0 2.0 8.0 6.0 7.0 10.0 -43.0 4.0 1.0 
8.0 7.0 2.0 0.0 9.0 0.0 4.0 -32.0 2.0 
7.0 8.0 9.0 9.0 6.0 10.0 1.0 2.0 -52.0 

